
  27    0


   0  14 2 3 4 5 7 8 9 11 12 13 23 24 25 26 
   8   4 20 18 10 6 
   3   5 20 18 17 16 14 
   4   3 22 16 14 
   6   3 19 17 15 
   2   2 15 14 
   3   2 21 14 
  10   2 19 18 
   6   2 17 14 
   6   1 16 
   2   1 16 
   6   1 15 
   8   1 15 
  10   1 27
   3   1 27
   8   1 27
   9   1 27
   2   1 27
   2   1 27
   6   1 27
   4   1 27
   4   1 27
  10   1 27
   4   1 27
   5   1 27
   2   1 27
   0   0 
